CMD:
./solvers/bin/cadical --plain --no-reduce -t 1600 ./data/cnfs//qspiflash_dualflexpress_divthree-p111/qspiflash_dualflexpress_divthree-p111.100.cnf

c --- [ banner ] -------------------------------------------------------------
c 
c CaDiCaL SAT Solver
c Copyright (c) 2016-2024
c A. Biere, M. Fleury, N. Froleyks, K. Fazekas, F. Pollitt, T. Faller
c JKU Linz, University of Freiburg, TU Wien
c 
c Version 2.1.3 5296d3d2a9bf48c154ab2acb5e44625776d821bf
c g++ (Gentoo 12.3.1_p20230526 p2) 12.3.1 20230526 -Wall -Wextra -O3 -DNDEBUG
c Sat Aug 9 07:26:21 PDT 2025 Linux cedar2.int.cedar.computecanada.ca 5.14.0-362.24.2.el9_3.x86_64 x86_64
c 
c --- [ limit ] --------------------------------------------------------------
c 
c setting time limit to 1600 seconds real time (due to '-t 1600')
c 
c --- [ parsing input ] ------------------------------------------------------
c 
c reading DIMACS file from './data/cnfs//qspiflash_dualflexpress_divthree-p111/qspiflash_dualflexpress_divthree-p111.100.cnf'
c opening file to read './data/cnfs//qspiflash_dualflexpress_divthree-p111/qspiflash_dualflexpress_divthree-p111.100.cnf'
c found 'p cnf 297469 869039' header
c parsed 869039 clauses in 0.13 seconds process time
c 
c --- [ options ] ------------------------------------------------------------
c 
c   --compact=false                (different from default 'true')
c   --decompose=false              (different from default 'true')
c   --deduplicate=false            (different from default 'true')
c   --elim=false                   (different from default 'true')
c   --probe=false                  (different from default 'true')
c   --reduce=false                 (different from default 'true')
c   --subsume=false                (different from default 'true')
c   --ternary=false                (different from default 'true')
c   --transred=false               (different from default 'true')
c   --vivify=false                 (different from default 'true')
c 
c --- [ solving ] ------------------------------------------------------------
c 
c time measured in process time since initialization
c 
c  seconds   reductions  redundant  irredundant
c          MB    restarts       trail       variables
c           level   conflicts       glue          remaining
c 
c *  0.13 137  0 0   0    0    0  0% 0 845588 281365 95%
c {  0.20 142  0 0   0    0    0  0% 0 845588 281365 95%
c i  0.20 142 25 0   0    9    7  6% 1 845588 281361 95%
c i  0.26 142 10 0   0   63   41  9% 3 845588 281359 95%
c i  0.28 143 112 0   0  106   81 14% 3 845588 281348 95%
c i  0.32 143 93 0  14  519  467 13% 2 845588 281277 95%
c i  0.32 143 91 0  14  533  475 13% 2 845588 281273 95%
c i  0.32 143 90 0  14  534  475 13% 2 845588 281270 95%
c i  0.32 143 89 0  14  543  481 13% 2 845588 281266 95%
c }  0.41 144 92 0  73 1000  904 16% 3 845588 281266 95%
c [  0.41 144  0 0  73 1000  904  0% 0 845588 281266 95%
c O  0.46 144 1678 0  73 1019  923 69% 2 845588 281266 95%
c i  0.58 144 75 0  74 2161 1965 11% 3 845588 281228 95%
c i  0.59 144 77 0  74 2296 2080 12% 3 845588 281137 95%
c i  0.60 144 77 0  74 2331 2111 12% 3 845588 281093 94%
c i  0.60 144 76 0  74 2336 2115 12% 3 845588 281088 94%
c i  0.60 144 76 0  74 2338 2116 12% 3 845588 281043 94%
c i  0.60 144 76 0  74 2376 2153 12% 3 845588 281032 94%
c i  0.60 144 76 0  74 2377 2153 12% 3 845588 281016 94%
c i  0.61 144 74 0  74 2541 2303 12% 3 845588 280998 94%
c 
c  seconds   reductions  redundant  irredundant
c          MB    restarts       trail       variables
c           level   conflicts       glue          remaining
c 
c i  0.62 144 74 0  74 2552 2311 12% 3 845588 280993 94%
c i  0.62 144 74 0  74 2553 2311 12% 3 845588 280928 94%
c i  0.62 144 73 0  74 2556 2313 12% 3 845588 280868 94%
c ]  0.68 144 70 0  74 3000 2705 12% 4 845588 280868 94%
c {  0.68 144 92 0  74 3000 2705 16% 3 845588 280868 94%
c F  0.68 144 90 0  80 3020 2725 15% 3 845588 280868 94%
c i  0.78 145 68 0 190 3645 3297 13% 3 845588 280864 94%
c i  0.78 145 68 0 195 3663 3312 13% 3 845588 280861 94%
c i  0.87 145 59 0 269 4306 3890 12% 3 845588 280856 94%
c i  0.99 145 52 0 418 5051 4544 11% 3 845588 280852 94%
c i  1.03 145 51 0 469 5256 4724 11% 3 845588 280848 94%
c i  1.15 145 62 0 510 5783 5202 12% 4 845588 280844 94%
c i  1.15 145 62 0 510 5784 5202 12% 4 845588 280840 94%
c #  1.19 145 60 0 549 6021 5418 12% 4 845588 280840 94%
c i  1.21 145 59 0 567 6089 5477 12% 4 845588 280836 94%
c i  1.21 145 59 0 567 6097 5481 12% 4 845588 280832 94%
c i  1.21 145 59 0 567 6101 5483 12% 4 845588 280792 94%
c }  1.41 145 61 0 636 7000 6303 13% 4 845588 280792 94%
c [  1.41 145 70 0 636 7000 6303 12% 4 845588 280792 94%
c I  2.13 146 193 0 638 10026 9038 24% 8 845588 280792 94%
c 
c  seconds    reductions    redundant  irredundant
c          MB     restarts         trail       variables
c            level    conflicts        glue          remaining
c 
c i  2.52 147 176 0 640 11640 10444 24% 9 845588 280783 94%
c ]  3.11 147 138 0 641 15001 13419 21% 9 845588 280783 94%
c {  3.11 147 61 0 641 15001 13419 13% 4 845588 280783 94%
c B  3.12 147 61 0 649 15027 13444 13% 4 845588 280783 94%
... skipped 37 lines ...
c i  7.58 150 46 0 2162 26972 23495 13% 5 812696 280047 94%
c i  7.58 150 46 0 2162 26974 23496 13% 5 812696 280028 94%
c i  7.58 150 46 0 2162 26975 23496 13% 5 812696 280010 94%
c i  7.58 150 46 0 2162 26989 23507 13% 5 812696 279993 94%
c 
c  seconds   reductions     redundant  irredundant
c          MB    restarts          trail       variables
c           level     conflicts        glue          remaining
c 
c i  7.58 150 46 0 2162 26999 23514 13% 5 812696 279987 94%
c i  7.61 150 46 0 2169 27064 23574 13% 5 812696 279976 94%
c i  7.61 150 46 0 2179 27107 23604 13% 5 812696 279972 94%
c i  7.74 150 45 0 2234 27517 23959 13% 5 812696 279969 94%
c i  7.77 150 45 0 2234 27813 24216 13% 5 812696 279955 94%
c F  7.83 150 44 0 2240 28030 24403 13% 5 812696 279955 94%
c i  7.83 150 44 0 2240 28034 24405 13% 5 812696 279934 94%
c i  8.03 150 44 0 2297 28471 24783 13% 5 812696 279930 94%
c i  8.13 150 44 0 2337 28650 24941 13% 5 812696 279926 94%
c i  8.13 150 44 0 2338 28651 24941 13% 5 812696 279918 94%
c i  8.16 150 44 0 2348 28695 24978 13% 5 812696 279914 94%
c i  8.19 150 44 0 2357 28789 25060 13% 5 812696 279910 94%
c i  8.41 150 43 0 2413 29160 25387 13% 5 812696 279906 94%
c i  8.43 150 43 0 2419 29185 25405 13% 5 812696 279902 94%
c i  8.52 150 43 0 2419 29468 25663 13% 5 812696 279898 94%
c i  8.63 150 43 0 2443 29713 25872 13% 5 812696 279893 94%
c i  8.65 150 43 0 2458 29814 25945 13% 5 812696 279889 94%
c i  8.67 150 43 0 2463 29836 25965 13% 5 812696 279884 94%
c i  8.75 150 43 0 2498 30051 26164 13% 5 812696 279880 94%
c i  8.91 150 42 0 2538 30409 26469 13% 5 812696 279876 94%
c 
c  seconds   reductions     redundant  irredundant
c          MB    restarts          trail       variables
c           level     conflicts        glue          remaining
c 
c i  8.95 150 42 0 2551 30476 26526 13% 5 812696 279872 94%
c }  9.19 150 42 0 2607 31004 26970 13% 5 812696 279872 94%
c [  9.19 150 138 0 2607 31004 26970 21% 9 812696 279872 94%
c i  9.48 150 131 0 2607 31566 27485 21% 8 812696 279864 94%
c i  9.64 150 129 0 2607 31810 27685 21% 8 812696 279860 94%
c i 10.79 150 112 0 2608 33834 29484 20% 8 812696 279855 94%
c i 10.79 150 112 0 2608 33840 29488 20% 8 812696 279850 94%
c i 11.12 150 107 0 2608 34589 30109 20% 8 812696 271367 91%
c i 11.12 150 107 0 2608 34590 30109 20% 8 812696 271204 91%
c i 11.12 150 107 0 2608 34593 30111 20% 8 812696 271085 91%
c ] 11.12 150 107 0 2608 34596 30112 20% 8 812696 270106 91%
c 0 11.12 150 107 0 2608 34596 30112 20% 8 812696 270106 91%
c 
c --- [ result ] -------------------------------------------------------------
c 
s UNSATISFIABLE
c 
c --- [ run-time profiling ] -------------------------------------------------
c 
c process time taken by individual solving procedures
c (percentage relative to process time for solving)
c 
c        10.99  100.00% search
c         6.72   61.14% unstable
c         3.90   35.45% stable
c         0.30    2.74% walk
c         0.13    1.18% parse
c         0.07    0.66% lucky
c         0.00    0.00% simplify
c   =================================
c        10.99   98.82% solve
c 
c last line shows process time for solving
c (percentage relative to total process time)
c 
c --- [ statistics ] ---------------------------------------------------------
c 
c chronological:             13748        39.74 %  of conflicts
c conflicts:                 34596      3148.27    per second
c decisions:                142179     12938.44    per second
c fixed:                     27329         9.19 %  of all variables
c learned:                   32786        94.77 %  per conflict
c learned_lits:             957015       100.00 %  learned literals
c minimized:                     0         0.00 %  learned literals
c shrunken:                 175067        18.29 %  learned literals
c minishrunken:             200931        21.00 %  learned literals
c otfs:                        329         0.95 %  of conflict
c propagations:          124087106        11.29 M  per second
c rephased:                      7      4942.29    interval
c restarts:                   2608        13.27    interval
c stabilizing:                   3        39.29 %  of conflicts
c subsumed:                   2138         0.24 %  of all clauses
c strengthened:                329         0.04 %  of all clauses
c walked:                        1     34596.00    interval
c 
c seconds are measured in process time for solving
c 
c --- [ resources ] ----------------------------------------------------------
c 
c total process time since initialization:        11.12    seconds
c total real time since initialization:           11.16    seconds
c maximum resident set size of process:          155.30    MB
c 
c --- [ shutting down ] ------------------------------------------------------
c 
c exit 20
